10
2147483647 22 10 48 95 7 37 95 22 36 
22 2147483647 22 90 85 24 92 14 94 60 
10 22 2147483647 46 16 54 53 15 34 30 
48 90 46 2147483647 30 1 79 81 46 6 
95 85 16 30 2147483647 42 61 97 97 10 
7 24 54 1 42 2147483647 59 85 8 89 
37 92 53 79 61 59 2147483647 72 88 98 
95 14 15 81 97 85 72 2147483647 41 47 
22 94 34 46 97 8 88 41 2147483647 74 
36 60 30 6 10 89 98 47 74 2147483647 
